% Graph Number 2 , Number Of Nodes 50 , Number Of Edges = 603
50 50 603
2 1
3 2
4 1
4 3
5 2
6 2
6 5
7 2
7 3
7 6
8 1
8 4
9 2
9 4
9 5
9 7
10 1
10 2
10 5
10 6
10 8
11 1
11 2
11 3
11 4
11 5
11 8
11 9
11 10
12 1
12 2
12 3
12 4
12 6
13 2
13 3
13 4
13 6
13 7
14 3
14 5
14 8
14 12
15 4
15 5
15 6
15 7
15 10
15 11
15 13
15 14
16 2
16 4
16 8
16 9
16 10
16 12
16 13
16 14
17 2
17 3
17 4
17 8
17 9
17 10
17 11
17 13
17 15
17 16
18 1
18 2
18 3
18 4
18 6
18 7
18 8
18 9
18 14
18 17
19 2
19 6
19 11
19 12
19 14
19 15
19 17
20 2
20 3
20 4
20 5
20 7
20 8
20 9
20 11
20 14
20 15
20 16
20 18
21 1
21 2
21 3
21 6
21 8
21 9
21 13
21 16
21 20
22 1
22 2
22 3
22 4
22 5
22 6
22 8
22 9
22 10
22 11
22 14
22 17
22 18
22 20
22 21
23 1
23 6
23 8
23 10
23 11
23 14
23 17
23 18
24 4
24 10
24 13
24 16
24 22
25 1
25 3
25 11
25 12
25 13
25 14
25 16
25 21
25 22
25 24
26 2
26 3
26 7
26 8
26 9
26 10
26 11
26 12
26 13
26 16
26 17
26 19
26 20
26 21
26 22
26 23
26 25
27 1
27 5
27 9
27 14
27 19
27 21
27 22
27 26
28 9
28 10
28 13
28 14
28 15
28 18
28 21
28 24
28 27
29 1
29 3
29 4
29 5
29 7
29 8
29 11
29 12
29 16
29 18
29 19
29 21
29 23
29 24
30 1
30 3
30 4
30 6
30 7
30 8
30 12
30 14
30 16
30 18
30 19
30 24
30 26
30 29
31 1
31 2
31 3
31 5
31 7
31 11
31 13
31 15
31 17
31 18
31 19
31 20
31 22
31 23
31 24
31 25
31 26
32 1
32 3
32 5
32 7
32 8
32 9
32 10
32 11
32 13
32 14
32 18
32 20
32 22
32 24
32 27
32 30
32 31
33 1
33 3
33 6
33 7
33 8
33 10
33 12
33 14
33 17
33 19
33 21
33 23
33 25
33 26
33 27
33 31
34 2
34 3
34 4
34 6
34 7
34 8
34 9
34 10
34 11
34 12
34 14
34 16
34 18
34 19
34 22
34 24
34 26
34 27
34 29
34 30
34 31
34 32
35 1
35 2
35 3
35 5
35 6
35 7
35 8
35 9
35 10
35 11
35 12
35 13
35 14
35 17
35 19
35 22
35 25
35 27
35 28
35 32
36 1
36 3
36 5
36 6
36 7
36 8
36 10
36 11
36 12
36 16
36 17
36 18
36 20
36 21
36 24
36 25
36 26
36 27
36 28
36 29
36 30
36 32
36 33
36 35
37 7
37 9
37 11
37 14
37 15
37 18
37 19
37 22
37 24
37 27
37 29
37 30
37 31
37 32
37 34
37 35
38 1
38 5
38 8
38 12
38 13
38 16
38 17
38 18
38 20
38 21
38 22
38 23
38 24
38 25
38 27
38 28
38 29
38 31
38 34
38 35
39 4
39 5
39 6
39 7
39 8
39 11
39 13
39 14
39 17
39 18
39 20
39 21
39 24
39 25
39 28
39 29
39 30
39 31
39 33
39 34
39 36
40 2
40 4
40 7
40 10
40 12
40 15
40 20
40 21
40 22
40 23
40 24
40 25
40 26
40 29
40 32
40 33
40 35
40 36
40 37
40 39
41 1
41 3
41 4
41 5
41 7
41 9
41 12
41 13
41 14
41 15
41 16
41 19
41 20
41 21
41 22
41 23
41 24
41 27
41 28
41 29
41 31
41 32
41 35
41 36
41 38
42 1
42 2
42 5
42 6
42 7
42 9
42 13
42 15
42 17
42 18
42 21
42 33
42 34
42 38
42 40
43 1
43 6
43 11
43 13
43 14
43 16
43 18
43 39
43 41
44 3
44 4
44 7
44 8
44 13
44 14
44 18
44 20
44 23
44 24
44 30
44 31
44 32
44 35
44 36
44 37
44 39
45 4
45 9
45 10
45 11
45 12
45 14
45 15
45 16
45 18
45 19
45 20
45 23
45 26
45 28
45 30
45 33
45 35
45 36
45 38
45 39
45 43
46 1
46 4
46 6
46 9
46 12
46 14
46 16
46 17
46 18
46 19
46 21
46 22
46 29
46 32
46 35
46 37
46 41
46 43
46 45
47 1
47 3
47 6
47 8
47 10
47 14
47 16
47 17
47 19
47 20
47 21
47 25
47 28
47 29
47 31
47 32
47 33
47 34
47 35
47 38
47 39
47 41
47 43
47 44
47 45
48 1
48 3
48 4
48 5
48 8
48 9
48 11
48 15
48 19
48 20
48 22
48 25
48 26
48 28
48 29
48 31
48 32
48 33
48 36
48 37
48 40
48 41
48 42
48 46
48 47
49 1
49 4
49 5
49 7
49 12
49 14
49 15
49 18
49 19
49 20
49 22
49 23
49 25
49 27
49 29
49 32
49 34
49 37
49 38
49 39
49 40
49 42
49 43
49 44
49 47
49 48
50 2
50 4
50 6
50 9
50 10
50 14
50 15
50 17
50 19
50 21
50 22
50 26
50 27
50 33
50 34
50 37
50 38
50 39
50 40
50 47
50 49
